
Log started (V12.8.0.0) Sat Dec 22 16:22:52 2018


Problem 'SP_0.sav' read.
Read time = 0.10 sec. (4.30 ticks)
Found incumbent of value 0.000000 after 0.00 sec. (3.08 ticks)
Tried aggregator 1 time.
MIP Presolve eliminated 99107 rows and 19623 columns.
Reduced MIP has 894 rows, 993 columns, and 5434 nonzeros.
Reduced MIP has 100 binaries, 0 generals, 0 SOSs, and 0 indicators.
Presolve time = 0.25 sec. (119.84 ticks)
Probing time = 0.00 sec. (0.30 ticks)
Tried aggregator 1 time.
Reduced MIP has 894 rows, 993 columns, and 5434 nonzeros.
Reduced MIP has 993 binaries, 0 generals, 0 SOSs, and 0 indicators.
Presolve time = 0.00 sec. (2.76 ticks)
Probing time = 0.00 sec. (0.30 ticks)
MIP emphasis: balance optimality and feasibility.
MIP search method: dynamic search.
Parallel mode: deterministic, using up to 12 threads.
Root relaxation solution time = 0.04 sec. (31.77 ticks)

        Nodes                                         Cuts/
   Node  Left     Objective  IInf  Best Integer    Best Bound    ItCnt     Gap

*     0+    0                            0.0000 -4838704.0000              --- 
*     0+    0                     -2593647.0000 -4838704.0000            86.56%
*     0+    0                     -2781236.0000 -4838704.0000            73.98%
      0     0 -3489152.7500   246 -2781236.0000 -3489152.7500     1142   25.45%
*     0+    0                     -3058210.0000 -3489152.7500            14.09%
*     0+    0                     -3481214.0000 -3489152.7500             0.23%
      0     0 -3487940.2500   312 -3481214.0000      Cuts: 16     1162    0.18%
      0     0 -3485975.0000   222 -3481214.0000      Cuts: 21     1193    0.14%
      0     0 -3485147.5000   248 -3481214.0000   ZeroHalf: 6     1218    0.11%
*     0     0      integral     0 -3484664.0000   ZeroHalf: 3     1229    0.00%
      0     0        cutoff       -3484664.0000 -3484664.0000     1229    0.00%
Elapsed time = 0.59 sec. (232.77 ticks, tree = 0.01 MB, solutions = 6)

Zero-half cuts applied:  28
Lift and project cuts applied:  1
Gomory fractional cuts applied:  4

Root node processing (before b&c):
  Real time             =    0.60 sec. (239.82 ticks)
Parallel b&c, 12 threads:
  Real time             =    0.00 sec. (0.00 ticks)
  Sync time (average)   =    0.00 sec.
  Wait time (average)   =    0.00 sec.
                          ------------
Total (root+branch&cut) =    0.60 sec. (239.82 ticks)

Solution pool: 6 solutions saved.

MIP - Integer optimal solution:  Objective = -3.4846640000e+06
Solution time =    0.60 sec.  Iterations = 1229  Nodes = 0
Deterministic time = 240.10 ticks  (398.71 ticks/sec)


Log started (V12.8.0.0) Sat Dec 22 17:04:43 2018


Problem 'SP_0.sav' read.
Read time = 0.10 sec. (4.30 ticks)
Found incumbent of value 0.000000 after 0.00 sec. (3.08 ticks)
Tried aggregator 1 time.
MIP Presolve eliminated 99107 rows and 19623 columns.
Reduced MIP has 894 rows, 993 columns, and 5434 nonzeros.
Reduced MIP has 100 binaries, 0 generals, 0 SOSs, and 0 indicators.
Presolve time = 0.25 sec. (119.65 ticks)
Probing time = 0.00 sec. (0.30 ticks)
Tried aggregator 1 time.
Reduced MIP has 894 rows, 993 columns, and 5434 nonzeros.
Reduced MIP has 993 binaries, 0 generals, 0 SOSs, and 0 indicators.
Presolve time = 0.00 sec. (2.76 ticks)
Probing time = 0.00 sec. (0.30 ticks)
MIP emphasis: balance optimality and feasibility.
MIP search method: dynamic search.
Parallel mode: deterministic, using up to 12 threads.
Root relaxation solution time = 0.04 sec. (31.77 ticks)

        Nodes                                         Cuts/
   Node  Left     Objective  IInf  Best Integer    Best Bound    ItCnt     Gap

*     0+    0                            0.0000 -4838704.0000              --- 
*     0+    0                     -2593647.0000 -4838704.0000            86.56%
*     0+    0                     -2781236.0000 -4838704.0000            73.98%
      0     0 -3489152.7500   246 -2781236.0000 -3489152.7500     1142   25.45%
*     0+    0                     -3058210.0000 -3489152.7500            14.09%
*     0+    0                     -3481214.0000 -3489152.7500             0.23%
      0     0 -3487940.2500   312 -3481214.0000      Cuts: 16     1162    0.18%
      0     0 -3485975.0000   222 -3481214.0000      Cuts: 21     1193    0.14%
      0     0 -3485147.5000   248 -3481214.0000   ZeroHalf: 6     1218    0.11%
*     0     0      integral     0 -3484664.0000   ZeroHalf: 3     1229    0.00%
      0     0        cutoff       -3484664.0000 -3484664.0000     1229    0.00%
Elapsed time = 0.56 sec. (232.57 ticks, tree = 0.01 MB, solutions = 6)

Zero-half cuts applied:  28
Lift and project cuts applied:  1
Gomory fractional cuts applied:  4

Root node processing (before b&c):
  Real time             =    0.57 sec. (239.62 ticks)
Parallel b&c, 12 threads:
  Real time             =    0.00 sec. (0.00 ticks)
  Sync time (average)   =    0.00 sec.
  Wait time (average)   =    0.00 sec.
                          ------------
Total (root+branch&cut) =    0.57 sec. (239.62 ticks)

Solution pool: 6 solutions saved.

MIP - Integer optimal solution:  Objective = -3.4846640000e+06
Solution time =    0.58 sec.  Iterations = 1229  Nodes = 0
Deterministic time = 239.91 ticks  (416.37 ticks/sec)

